3 40 1 10
12 18 14 12 18 11 19 13 3 7 7 8 16 15 6 9 9 14 20 10 10 17 12 8 5 16 3 20 19 14 16 5 3 6 19 15 18 14 7 3 
14.08 4.41 2.15 13.36 3.97 14.93 14.08 2.96 8.43 12.67 6.59 5.8 4.81 10.65 3.48 3.55 2.84 2.29 7.22 6.06 8 12.69 1.37 13.96 11.75 6.52 1.44 4.4 2.25 11.79 14.24 2.78 6 0.77 2.08 7.52 6.28 12.11 2.72 5.96 
8 8 8 8 8 8 8 8 8 8 8 8 8 8 8 8 8 8 8 8 8 8 8 8 8 8 8 8 8 8 8 8 8 8 8 8 8 8 8 8 
1.91 3.05 15.72 1.83 1.36 2.31 11.9 5.24 7.21 10.88 3.68 8.09 14.08 14.14 8.34 1.23 0.75 9.67 6.12 13.2 9.82 5.57 6.8 4.63 4.78 4.7 5.25 14.57 4.84 2.37 7.61 10.08 15.96 7.84 14.73 7.21 8.63 0.92 14.21 9.19 
1 1 1 1 1 1 1 1 1 1 1 1 1 1 1 1 1 1 1 1 1 1 1 1 1 1 1 1 1 1 1 1 1 1 1 1 1 1 1 1 
1 1 1 1 1 1 1 1 1 1 1 1 1 1 1 1 1 1 1 1 1 1 1 1 1 1 1 1 1 1 1 1 1 1 1 1 1 1 1 1 
1 1 1 1 1 1 1 1 1 1 1 1 1 1 1 1 1 1 1 1 1 1 1 1 1 1 1 1 1 1 1 1 1 1 1 1 1 1 1 1 
0.01 0.01 0.01 0.01 0.01 0.01 0.01 0.01 0.01 0.01 0.01 0.01 0.01 0.01 0.01 0.01 0.01 0.01 0.01 0.01 0.01 0.01 0.01 0.01 0.01 0.01 0.01 0.01 0.01 0.01 0.01 0.01 0.01 0.01 0.01 0.01 0.01 0.01 0.01 0.01 
0.02 0.02 0.02 0.02 0.02 0.02 0.02 0.02 0.02 0.02 0.02 0.02 0.02 0.02 0.02 0.02 0.02 0.02 0.02 0.02 0.02 0.02 0.02 0.02 0.02 0.02 0.02 0.02 0.02 0.02 0.02 0.02 0.02 0.02 0.02 0.02 0.02 0.02 0.02 0.02 
1 1 1 1 1 1 1 1 1 1 1 1 1 1 1 1 1 1 1 1 1 1 1 1 1 1 1 1 1 1 1 1 1 1 1 1 1 1 1 1 
